1111100 AB
350 371 392 414 433 452 471 490 509 529 559 589 619 649 679 709 739 769 799 823 847 870 893 916 939 963 983 1006 1029 1054 1077 1100 1123 1147 1171 1194 1216 1237 1258 1279 1309 1340 1371 1403 1435 27 59
1111100 BA
350 371 392 414 433 452 471 490 509 529 559 589 619 649 679 709 739 769 799 823 847 870 893 916 939 963 983 1006 1029 1054 1077 1100 1123 1147 1171 1194 1216 1237 1258 1279 1309 1340 1371 1403 1435 27 59
0000011 AB
350 382 414 452 491 530 569 608 647 686 725 764 803 842 868 894 920 946 972 1011 1050 1076 1102 1128 1154 1193 1232 1268 1300 1332 1364 1396 1428 20 52
0000011 BA
350 382 414 452 491 530 569 608 647 686 725 764 803 842 868 894 920 946 972 1011 1050 1076 1102 1128 1154 1193 1232 1268 1300 1332 1364 1396 1428 20 52
